words_hard_train/7734.qaiger
aag 170 16 0 1 154
2
4
12
14
18
22
26
30
34
44
52
66
82
98
114
130
341
6 2 4
8 3 5
10 7 9
16 13 15
20 16 19
24 20 23
28 24 27
32 28 31
36 32 35
38 10 37
40 11 36
42 39 41
46 44 12
48 12 14
50 49 17
54 50 52
56 47 55
58 51 53
60 57 59
62 17 18
64 63 21
68 65 67
70 64 66
72 69 71
74 60 72
76 75 71
78 21 22
80 79 25
84 81 83
86 80 82
88 85 87
90 77 88
92 91 87
94 25 26
96 95 29
100 97 99
102 96 98
104 101 103
106 93 104
108 107 103
110 29 30
112 111 33
116 113 115
118 112 114
120 117 119
122 109 120
124 123 119
126 33 34
128 127 37
132 129 131
134 128 130
136 133 135
138 125 136
140 139 135
142 42 141
144 43 140
146 143 145
148 124 137
150 149 139
152 108 121
154 153 123
156 56 59
158 45 13
160 55 59
162 159 161
164 157 163
166 61 73
168 167 75
170 164 169
172 76 89
174 173 91
176 170 175
178 92 105
180 179 107
182 176 181
184 155 182
186 151 184
188 186 5
190 187 4
192 189 191
194 146 193
196 147 192
198 195 197
200 45 12
202 200 52
204 158 160
206 205 163
208 207 14
210 203 209
212 165 168
214 213 171
216 215 19
218 214 18
220 217 219
222 211 220
224 223 219
226 171 174
228 227 177
230 229 23
232 228 22
234 231 233
236 225 234
238 237 233
240 177 180
242 241 183
244 243 27
246 242 26
248 245 247
250 239 248
252 251 247
254 154 183
256 255 185
258 257 31
260 256 30
262 259 261
264 253 262
266 265 261
268 150 185
270 269 187
272 271 35
274 270 34
276 273 275
278 267 276
280 279 275
282 199 281
284 198 280
286 283 285
288 206 15
290 289 209
292 291 44
294 210 221
296 295 223
298 292 297
300 224 235
302 301 237
304 158 53
306 305 203
308 307 297
310 303 308
312 299 311
314 238 249
316 315 251
318 313 317
320 302 306
322 318 321
324 266 277
326 325 279
328 322 327
330 292 310
332 331 265
334 252 263
336 332 335
338 328 337
340 287 339
i0 2 y1[7]
i1 1 x2[7]
i2 1 x2[0]
i3 1 x2[1]
i4 1 x2[2]
i5 1 x2[3]
i6 1 x2[4]
i7 1 x2[5]
i8 1 x2[6]
i9 2 y1[0]
i10 2 y1[1]
i11 2 y1[2]
i12 2 y1[3]
i13 2 y1[4]
i14 2 y1[5]
i15 2 y1[6]
o0 bv[0]
c
simplified
  >=
    1
    subtract
      1 x2
      add
        2 y1
        unary minus
          1 x2
