words_hard_train/7734.qaiger.qdimacs
p cnf 170 463
a 2 6 7 9 11 13 15 17 0
e 1 3 4 5 8 10 12 14 16 18 19 20 21 22 23 24 25 26 27 28 29 30 31 32 33 34 35 36 37 38 39 40 41 42 43 44 45 46 47 48 49 50 51 52 53 54 55 56 57 58 59 60 61 62 63 64 65 66 67 68 69 70 71 72 73 74 75 76 77 78 79 80 81 82 83 84 85 86 87 88 89 90 91 92 93 94 95 96 97 98 99 100 101 102 103 104 105 106 107 108 109 110 111 112 113 114 115 116 117 118 119 120 121 122 123 124 125 126 127 128 129 130 131 132 133 134 135 136 137 138 139 140 141 142 143 144 145 146 147 148 149 150 151 152 153 154 155 156 157 158 159 160 161 162 163 164 165 166 167 168 169 170 0
-1 -2 3 0
1 -3 0
2 -3 0
1 2 4 0
-1 -4 0
-2 -4 0
3 4 5 0
-3 -5 0
-4 -5 0
6 7 8 0
-6 -8 0
-7 -8 0
-8 9 10 0
8 -10 0
-9 -10 0
-10 11 12 0
10 -12 0
-11 -12 0
-12 13 14 0
12 -14 0
-13 -14 0
-14 15 16 0
14 -16 0
-15 -16 0
-16 17 18 0
16 -18 0
-17 -18 0
-5 18 19 0
5 -19 0
-18 -19 0
5 -18 20 0
-5 -20 0
18 -20 0
19 20 21 0
-19 -21 0
-20 -21 0
-22 -6 23 0
22 -23 0
6 -23 0
-6 -7 24 0
6 -24 0
7 -24 0
24 8 25 0
-24 -25 0
-8 -25 0
-25 -26 27 0
25 -27 0
26 -27 0
23 27 28 0
-23 -28 0
-27 -28 0
25 26 29 0
-25 -29 0
-26 -29 0
28 29 30 0
-28 -30 0
-29 -30 0
8 -9 31 0
-8 -31 0
9 -31 0
31 10 32 0
-31 -32 0
-10 -32 0
32 33 34 0
-32 -34 0
-33 -34 0
-32 -33 35 0
32 -35 0
33 -35 0
34 35 36 0
-34 -36 0
-35 -36 0
-30 -36 37 0
30 -37 0
36 -37 0
37 35 38 0
-37 -38 0
-35 -38 0
10 -11 39 0
-10 -39 0
11 -39 0
39 12 40 0
-39 -40 0
-12 -40 0
40 41 42 0
-40 -42 0
-41 -42 0
-40 -41 43 0
40 -43 0
41 -43 0
42 43 44 0
-42 -44 0
-43 -44 0
38 -44 45 0
-38 -45 0
44 -45 0
45 43 46 0
-45 -46 0
-43 -46 0
12 -13 47 0
-12 -47 0
13 -47 0
47 14 48 0
-47 -48 0
-14 -48 0
48 49 50 0
-48 -50 0
-49 -50 0
-48 -49 51 0
48 -51 0
49 -51 0
50 51 52 0
-50 -52 0
-51 -52 0
46 -52 53 0
-46 -53 0
52 -53 0
53 51 54 0
-53 -54 0
-51 -54 0
14 -15 55 0
-14 -55 0
15 -55 0
55 16 56 0
-55 -56 0
-16 -56 0
56 57 58 0
-56 -58 0
-57 -58 0
-56 -57 59 0
56 -59 0
57 -59 0
58 59 60 0
-58 -60 0
-59 -60 0
54 -60 61 0
-54 -61 0
60 -61 0
61 59 62 0
-61 -62 0
-59 -62 0
16 -17 63 0
-16 -63 0
17 -63 0
63 18 64 0
-63 -64 0
-18 -64 0
64 65 66 0
-64 -66 0
-65 -66 0
-64 -65 67 0
64 -67 0
65 -67 0
66 67 68 0
-66 -68 0
-67 -68 0
62 -68 69 0
-62 -69 0
68 -69 0
69 67 70 0
-69 -70 0
-67 -70 0
-21 70 71 0
21 -71 0
-70 -71 0
21 -70 72 0
-21 -72 0
70 -72 0
71 72 73 0
-71 -73 0
-72 -73 0
-62 68 74 0
62 -74 0
-68 -74 0
74 69 75 0
-74 -75 0
-69 -75 0
-54 60 76 0
54 -76 0
-60 -76 0
76 61 77 0
-76 -77 0
-61 -77 0
-28 29 78 0
28 -78 0
-29 -78 0
22 6 79 0
-22 -79 0
-6 -79 0
27 29 80 0
-27 -80 0
-29 -80 0
79 80 81 0
-79 -81 0
-80 -81 0
78 81 82 0
-78 -82 0
-81 -82 0
30 36 83 0
-30 -83 0
-36 -83 0
83 37 84 0
-83 -84 0
-37 -84 0
-82 84 85 0
82 -85 0
-84 -85 0
-38 44 86 0
38 -86 0
-44 -86 0
86 45 87 0
-86 -87 0
-45 -87 0
-85 87 88 0
85 -88 0
-87 -88 0
-46 52 89 0
46 -89 0
-52 -89 0
89 53 90 0
-89 -90 0
-53 -90 0
-88 90 91 0
88 -91 0
-90 -91 0
77 -91 92 0
-77 -92 0
91 -92 0
75 -92 93 0
-75 -93 0
92 -93 0
-93 2 94 0
93 -94 0
-2 -94 0
93 -2 95 0
-93 -95 0
2 -95 0
94 95 96 0
-94 -96 0
-95 -96 0
-73 96 97 0
73 -97 0
-96 -97 0
73 -96 98 0
-73 -98 0
96 -98 0
97 98 99 0
-97 -99 0
-98 -99 0
22 -6 100 0
-22 -100 0
6 -100 0
-100 -26 101 0
100 -101 0
26 -101 0
-79 -80 102 0
79 -102 0
80 -102 0
102 81 103 0
-102 -103 0
-81 -103 0
103 -7 104 0
-103 -104 0
7 -104 0
101 104 105 0
-101 -105 0
-104 -105 0
82 -84 106 0
-82 -106 0
84 -106 0
106 85 107 0
-106 -107 0
-85 -107 0
107 9 108 0
-107 -108 0
-9 -108 0
-107 -9 109 0
107 -109 0
9 -109 0
108 109 110 0
-108 -110 0
-109 -110 0
105 -110 111 0
-105 -111 0
110 -111 0
111 109 112 0
-111 -112 0
-109 -112 0
85 -87 113 0
-85 -113 0
87 -113 0
113 88 114 0
-113 -114 0
-88 -114 0
114 11 115 0
-114 -115 0
-11 -115 0
-114 -11 116 0
114 -116 0
11 -116 0
115 116 117 0
-115 -117 0
-116 -117 0
112 -117 118 0
-112 -118 0
117 -118 0
118 116 119 0
-118 -119 0
-116 -119 0
88 -90 120 0
-88 -120 0
90 -120 0
120 91 121 0
-120 -121 0
-91 -121 0
121 13 122 0
-121 -122 0
-13 -122 0
-121 -13 123 0
121 -123 0
13 -123 0
122 123 124 0
-122 -124 0
-123 -124 0
119 -124 125 0
-119 -125 0
124 -125 0
125 123 126 0
-125 -126 0
-123 -126 0
-77 91 127 0
77 -127 0
-91 -127 0
127 92 128 0
-127 -128 0
-92 -128 0
128 15 129 0
-128 -129 0
-15 -129 0
-128 -15 130 0
128 -130 0
15 -130 0
129 130 131 0
-129 -131 0
-130 -131 0
126 -131 132 0
-126 -132 0
131 -132 0
132 130 133 0
-132 -133 0
-130 -133 0
-75 92 134 0
75 -134 0
-92 -134 0
134 93 135 0
-134 -135 0
-93 -135 0
135 17 136 0
-135 -136 0
-17 -136 0
-135 -17 137 0
135 -137 0
17 -137 0
136 137 138 0
-136 -138 0
-137 -138 0
133 -138 139 0
-133 -139 0
138 -139 0
139 137 140 0
-139 -140 0
-137 -140 0
99 140 141 0
-99 -141 0
-140 -141 0
-99 -140 142 0
99 -142 0
140 -142 0
141 142 143 0
-141 -143 0
-142 -143 0
-103 7 144 0
103 -144 0
-7 -144 0
144 104 145 0
-144 -145 0
-104 -145 0
145 -22 146 0
-145 -146 0
22 -146 0
-105 110 147 0
105 -147 0
-110 -147 0
147 111 148 0
-147 -148 0
-111 -148 0
-146 148 149 0
146 -149 0
-148 -149 0
-112 117 150 0
112 -150 0
-117 -150 0
150 118 151 0
-150 -151 0
-118 -151 0
-79 26 152 0
79 -152 0
-26 -152 0
152 101 153 0
-152 -153 0
-101 -153 0
153 148 154 0
-153 -154 0
-148 -154 0
151 -154 155 0
-151 -155 0
154 -155 0
149 155 156 0
-149 -156 0
-155 -156 0
-119 124 157 0
119 -157 0
-124 -157 0
157 125 158 0
-157 -158 0
-125 -158 0
156 158 159 0
-156 -159 0
-158 -159 0
-151 -153 160 0
151 -160 0
153 -160 0
-159 160 161 0
159 -161 0
-160 -161 0
-133 138 162 0
133 -162 0
-138 -162 0
162 139 163 0
-162 -163 0
-139 -163 0
-161 163 164 0
161 -164 0
-163 -164 0
-146 -155 165 0
146 -165 0
155 -165 0
165 132 166 0
-165 -166 0
-132 -166 0
-126 131 167 0
126 -167 0
-131 -167 0
-166 167 168 0
166 -168 0
-167 -168 0
-164 168 169 0
164 -169 0
-168 -169 0
143 169 170 0
-143 -170 0
-169 -170 0
-170 0
